Minimize
  obj: x0 + x1 + x2 + x3 + x4 + x5 + x6 + x7 + x8 + x9 + x10 + x11

Subject To
  c0: x0 + x2 + x3 + x6 + x7 = 38
  c1: x0 + x8 + x11 = 27
  c2: x0 + x2 + x6 + x11 = 37
  c3: x0 + x7 + x9 = 21
  c4: x0 + x1 + x2 + x5 + x6 + x7 + x10 = 50
  c5: x0 + x2 + x3 + x4 + x5 + x6 + x7 = 57
  c6: x0 + x2 + x5 + x6 + x7 + x9 + x11 = 57
  c7: x1 + x7 + x8 + x10 = 31
  c8: x4 + x5 + x7 = 22
  c9: x6 + x7 + x8 + x9 + x10 + x11 = 52

Bounds
  x0 >= 0
  x1 >= 0
  x2 >= 0
  x3 >= 0
  x4 >= 0
  x5 >= 0
  x6 >= 0
  x7 >= 0
  x8 >= 0
  x9 >= 0
  x10 >= 0
  x11 >= 0

Generals
  x0 x1 x2 x3 x4 x5 x6 x7 x8 x9 x10 x11

End
